; Options: -in -smt2
(set-option :produce-unsat-assumptions true)

(declare-fun start!1155 () Bool)

(assert start!1155)

(declare-fun b!5060 () Bool)

(declare-fun res!3957 () Bool)

(declare-fun e!2765 () Bool)

(assert (=> b!5060 (=> (not res!3957) (not e!2765))))

(declare-datatypes ((array!439 0))(
  ( (array!440 (arr!194 (Array (_ BitVec 32) (_ FloatingPoint 11 53))) (size!194 (_ BitVec 32))) )
))
(declare-fun qq!74 () array!439)

(declare-fun qqInv!0 (array!439) Bool)

(assert (=> b!5060 (= res!3957 (qqInv!0 qq!74))))

(declare-fun b!5061 () Bool)

(declare-fun res!3959 () Bool)

(assert (=> b!5061 (=> (not res!3959) (not e!2765))))

(declare-fun fq!78 () array!439)

(declare-fun jz!70 () (_ BitVec 32))

(declare-fun i!327 () (_ BitVec 32))

(assert (=> b!5061 (= res!3959 (and (fp.leq (fp #b0 #b00000000000 #b0000000000000000000000000000000000000000000000000000) (select (store ((as const (Array (_ BitVec 32) (_ FloatingPoint 11 53))) (fp #b0 #b00000000000 #b0000000000000000000000000000000000000000000000000000)) #b00000000000000000000000000000000 (fp.mul roundNearestTiesToEven (fp #b0 #b01111111111 #b1001001000011111101101000000000000000000000000000000) (select (arr!194 qq!74) #b00000000000000000000000000000000))) #b00000000000000000000000000000000)) (fp.leq (select (store ((as const (Array (_ BitVec 32) (_ FloatingPoint 11 53))) (fp #b0 #b00000000000 #b0000000000000000000000000000000000000000000000000000)) #b00000000000000000000000000000000 (fp.mul roundNearestTiesToEven (fp #b0 #b01111111111 #b1001001000011111101101000000000000000000000000000000) (select (arr!194 qq!74) #b00000000000000000000000000000000))) #b00000000000000000000000000000000) (fp #b0 #b01111111110 #b1001001000011111101100001101101111000000100110000000)) (fp.leq (fp #b0 #b00000000000 #b0000000000000000000000000000000000000000000000000000) (select (store (store ((as const (Array (_ BitVec 32) (_ FloatingPoint 11 53))) (fp #b0 #b00000000000 #b0000000000000000000000000000000000000000000000000000)) #b00000000000000000000000000000000 (fp.mul roundNearestTiesToEven (fp #b0 #b01111111111 #b1001001000011111101101000000000000000000000000000000) (select (arr!194 qq!74) #b00000000000000000000000000000000))) #b00000000000000000000000000000001 (fp.add roundNearestTiesToEven (fp.mul roundNearestTiesToEven (fp #b0 #b01111111111 #b1001001000011111101101000000000000000000000000000000) (select (arr!194 qq!74) #b00000000000000000000000000000001)) (fp.mul roundNearestTiesToEven (fp #b0 #b01111100111 #b0100010001000010110100000000000000000000000000000000) (select (arr!194 qq!74) #b00000000000000000000000000000000)))) #b00000000000000000000000000000001)) (fp.leq (select (store (store ((as const (Array (_ BitVec 32) (_ FloatingPoint 11 53))) (fp #b0 #b00000000000 #b0000000000000000000000000000000000000000000000000000)) #b00000000000000000000000000000000 (fp.mul roundNearestTiesToEven (fp #b0 #b01111111111 #b1001001000011111101101000000000000000000000000000000) (select (arr!194 qq!74) #b00000000000000000000000000000000))) #b00000000000000000000000000000001 (fp.add roundNearestTiesToEven (fp.mul roundNearestTiesToEven (fp #b0 #b01111111111 #b1001001000011111101101000000000000000000000000000000) (select (arr!194 qq!74) #b00000000000000000000000000000001)) (fp.mul roundNearestTiesToEven (fp #b0 #b01111100111 #b0100010001000010110100000000000000000000000000000000) (select (arr!194 qq!74) #b00000000000000000000000000000000)))) #b00000000000000000000000000000001) (fp #b0 #b01111101000 #b0001101000100000100011001001010011001110101111100000)) (fp.leq (fp #b0 #b00000000000 #b0000000000000000000000000000000000000000000000000000) (select (store (store (store ((as const (Array (_ BitVec 32) (_ FloatingPoint 11 53))) (fp #b0 #b00000000000 #b0000000000000000000000000000000000000000000000000000)) #b00000000000000000000000000000000 (fp.mul roundNearestTiesToEven (fp #b0 #b01111111111 #b1001001000011111101101000000000000000000000000000000) (select (arr!194 qq!74) #b00000000000000000000000000000000))) #b00000000000000000000000000000001 (fp.add roundNearestTiesToEven (fp.mul roundNearestTiesToEven (fp #b0 #b01111111111 #b1001001000011111101101000000000000000000000000000000) (select (arr!194 qq!74) #b00000000000000000000000000000001)) (fp.mul roundNearestTiesToEven (fp #b0 #b01111100111 #b0100010001000010110100000000000000000000000000000000) (select (arr!194 qq!74) #b00000000000000000000000000000000)))) #b00000000000000000000000000000010 (fp.add roundNearestTiesToEven (fp.add roundNearestTiesToEven (fp.mul roundNearestTiesToEven (fp #b0 #b01111111111 #b1001001000011111101101000000000000000000000000000000) (select (arr!194 qq!74) #b00000000000000000000000000000010)) (fp.mul roundNearestTiesToEven (fp #b0 #b01111100111 #b0100010001000010110100000000000000000000000000000000) (select (arr!194 qq!74) #b00000000000000000000000000000001))) (fp.mul roundNearestTiesToEven (fp #b0 #b01111001111 #b1000010001101001100010000000000000000000000000000000) (select (arr!194 qq!74) #b00000000000000000000000000000000)))) #b00000000000000000000000000000010)) (fp.leq (select (store (store (store ((as const (Array (_ BitVec 32) (_ FloatingPoint 11 53))) (fp #b0 #b00000000000 #b0000000000000000000000000000000000000000000000000000)) #b00000000000000000000000000000000 (fp.mul roundNearestTiesToEven (fp #b0 #b01111111111 #b1001001000011111101101000000000000000000000000000000) (select (arr!194 qq!74) #b00000000000000000000000000000000))) #b00000000000000000000000000000001 (fp.add roundNearestTiesToEven (fp.mul roundNearestTiesToEven (fp #b0 #b01111111111 #b1001001000011111101101000000000000000000000000000000) (select (arr!194 qq!74) #b00000000000000000000000000000001)) (fp.mul roundNearestTiesToEven (fp #b0 #b01111100111 #b0100010001000010110100000000000000000000000000000000) (select (arr!194 qq!74) #b00000000000000000000000000000000)))) #b00000000000000000000000000000010 (fp.add roundNearestTiesToEven (fp.add roundNearestTiesToEven (fp.mul roundNearestTiesToEven (fp #b0 #b01111111111 #b1001001000011111101101000000000000000000000000000000) (select (arr!194 qq!74) #b00000000000000000000000000000010)) (fp.mul roundNearestTiesToEven (fp #b0 #b01111100111 #b0100010001000010110100000000000000000000000000000000) (select (arr!194 qq!74) #b00000000000000000000000000000001))) (fp.mul roundNearestTiesToEven (fp #b0 #b01111001111 #b1000010001101001100010000000000000000000000000000000) (select (arr!194 qq!74) #b00000000000000000000000000000000)))) #b00000000000000000000000000000010) (fp #b0 #b01111010000 #b1100110001001011101000011101001010011001111110100000)) (fp.leq (fp #b0 #b00000000000 #b0000000000000000000000000000000000000000000000000000) (select (store (store (store (store ((as const (Array (_ BitVec 32) (_ FloatingPoint 11 53))) (fp #b0 #b00000000000 #b0000000000000000000000000000000000000000000000000000)) #b00000000000000000000000000000000 (fp.mul roundNearestTiesToEven (fp #b0 #b01111111111 #b1001001000011111101101000000000000000000000000000000) (select (arr!194 qq!74) #b00000000000000000000000000000000))) #b00000000000000000000000000000001 (fp.add roundNearestTiesToEven (fp.mul roundNearestTiesToEven (fp #b0 #b01111111111 #b1001001000011111101101000000000000000000000000000000) (select (arr!194 qq!74) #b00000000000000000000000000000001)) (fp.mul roundNearestTiesToEven (fp #b0 #b01111100111 #b0100010001000010110100000000000000000000000000000000) (select (arr!194 qq!74) #b00000000000000000000000000000000)))) #b00000000000000000000000000000010 (fp.add roundNearestTiesToEven (fp.add roundNearestTiesToEven (fp.mul roundNearestTiesToEven (fp #b0 #b01111111111 #b1001001000011111101101000000000000000000000000000000) (select (arr!194 qq!74) #b00000000000000000000000000000010)) (fp.mul roundNearestTiesToEven (fp #b0 #b01111100111 #b0100010001000010110100000000000000000000000000000000) (select (arr!194 qq!74) #b00000000000000000000000000000001))) (fp.mul roundNearestTiesToEven (fp #b0 #b01111001111 #b1000010001101001100010000000000000000000000000000000) (select (arr!194 qq!74) #b00000000000000000000000000000000)))) #b00000000000000000000000000000011 (fp.add roundNearestTiesToEven (fp.add roundNearestTiesToEven (fp.add roundNearestTiesToEven (fp.mul roundNearestTiesToEven (fp #b0 #b01111111111 #b1001001000011111101101000000000000000000000000000000) (select (arr!194 qq!74) #b00000000000000000000000000000011)) (fp.mul roundNearestTiesToEven (fp #b0 #b01111100111 #b0100010001000010110100000000000000000000000000000000) (select (arr!194 qq!74) #b00000000000000000000000000000010))) (fp.mul roundNearestTiesToEven (fp #b0 #b01111001111 #b1000010001101001100010000000000000000000000000000000) (select (arr!194 qq!74) #b00000000000000000000000000000001))) (fp.mul roundNearestTiesToEven (fp #b0 #b01110110111 #b1000110011000101000101100000000000000000000000000000) (select (arr!194 qq!74) #b00000000000000000000000000000000)))) #b00000000000000000000000000000011)) (fp.leq (select (store (store (store (store ((as const (Array (_ BitVec 32) (_ FloatingPoint 11 53))) (fp #b0 #b00000000000 #b0000000000000000000000000000000000000000000000000000)) #b00000000000000000000000000000000 (fp.mul roundNearestTiesToEven (fp #b0 #b01111111111 #b1001001000011111101101000000000000000000000000000000) (select (arr!194 qq!74) #b00000000000000000000000000000000))) #b00000000000000000000000000000001 (fp.add roundNearestTiesToEven (fp.mul roundNearestTiesToEven (fp #b0 #b01111111111 #b1001001000011111101101000000000000000000000000000000) (select (arr!194 qq!74) #b00000000000000000000000000000001)) (fp.mul roundNearestTiesToEven (fp #b0 #b01111100111 #b0100010001000010110100000000000000000000000000000000) (select (arr!194 qq!74) #b00000000000000000000000000000000)))) #b00000000000000000000000000000010 (fp.add roundNearestTiesToEven (fp.add roundNearestTiesToEven (fp.mul roundNearestTiesToEven (fp #b0 #b01111111111 #b1001001000011111101101000000000000000000000000000000) (select (arr!194 qq!74) #b00000000000000000000000000000010)) (fp.mul roundNearestTiesToEven (fp #b0 #b01111100111 #b0100010001000010110100000000000000000000000000000000) (select (arr!194 qq!74) #b00000000000000000000000000000001))) (fp.mul roundNearestTiesToEven (fp #b0 #b01111001111 #b1000010001101001100010000000000000000000000000000000) (select (arr!194 qq!74) #b00000000000000000000000000000000)))) #b00000000000000000000000000000011 (fp.add roundNearestTiesToEven (fp.add roundNearestTiesToEven (fp.add roundNearestTiesToEven (fp.mul roundNearestTiesToEven (fp #b0 #b01111111111 #b1001001000011111101101000000000000000000000000000000) (select (arr!194 qq!74) #b00000000000000000000000000000011)) (fp.mul roundNearestTiesToEven (fp #b0 #b01111100111 #b0100010001000010110100000000000000000000000000000000) (select (arr!194 qq!74) #b00000000000000000000000000000010))) (fp.mul roundNearestTiesToEven (fp #b0 #b01111001111 #b1000010001101001100010000000000000000000000000000000) (select (arr!194 qq!74) #b00000000000000000000000000000001))) (fp.mul roundNearestTiesToEven (fp #b0 #b01110110111 #b1000110011000101000101100000000000000000000000000000) (select (arr!194 qq!74) #b00000000000000000000000000000000)))) #b00000000000000000000000000000011) (fp #b0 #b01110111001 #b0100100001001011101001000100011000011011101101111000)) (bvsle #b00000000000000000000000000000100 i!327) (bvsle i!327 jz!70) (= (size!194 fq!78) #b00000000000000000000000000010100)))))

(declare-fun b!5062 () Bool)

(declare-fun res!3960 () Bool)

(assert (=> b!5062 (=> (not res!3960) (not e!2765))))

(declare-fun fqInv!0 (array!439) Bool)

(assert (=> b!5062 (= res!3960 (fqInv!0 fq!78))))

(declare-fun res!3958 () Bool)

(assert (=> start!1155 (=> (not res!3958) (not e!2765))))

(assert (=> start!1155 (= res!3958 (and (bvsle #b00000000000000000000000000000000 jz!70) (bvslt jz!70 #b00000000000000000000000000010100) (= (size!194 qq!74) #b00000000000000000000000000010100)))))

(assert (=> start!1155 e!2765))

(assert (=> start!1155 true))

(declare-fun array_inv!144 (array!439) Bool)

(assert (=> start!1155 (array_inv!144 qq!74)))

(assert (=> start!1155 (array_inv!144 fq!78)))

(declare-fun b!5063 () Bool)

(assert (=> b!5063 (= e!2765 (and (bvslt i!327 jz!70) (let ((fw0!4 (fp.mul roundNearestTiesToEven (fp #b0 #b01111111111 #b1001001000011111101101000000000000000000000000000000) (select (arr!194 qq!74) i!327)))) (let ((fw1!4 (fp.mul roundNearestTiesToEven (fp #b0 #b01111100111 #b0100010001000010110100000000000000000000000000000000) (select (arr!194 qq!74) (bvsub i!327 #b00000000000000000000000000000001))))) (and (fp.leq (fp #b0 #b00000000000 #b0000000000000000000000000000000000000000000000000000) fw0!4) (fp.leq fw0!4 (fp.mul roundNearestTiesToEven (fp #b0 #b01111111111 #b1001001000011111101101000000000000000000000000000000) (select (store (store (store (store (store (store (store (store (store (store (store (store (store (store (store (store (store (store (store (store ((as const (Array (_ BitVec 32) (_ FloatingPoint 11 53))) (fp #b0 #b00000000000 #b0000000000000000000000000000000000000000000000000000)) #b00000000000000000000000000000000 (fp #b0 #b01111111101 #b1111111111111111111111000000000000000000000000000000)) #b00000000000000000000000000000001 (fp #b0 #b01111100110 #b1111111111111111111111100000000000000000000000000000)) #b00000000000000000000000000001010 (fp #b0 #b01100001110 #b1111111111111111111111100000000000000000000000000000)) #b00000000000000000000000000001011 (fp #b0 #b01011110110 #b1111111111111111111111100000000000000000000000000000)) #b00000000000000000000000000001100 (fp #b0 #b01011011110 #b1111111111111111111111100000000000000000000000000000)) #b00000000000000000000000000001101 (fp #b0 #b01011000110 #b1111111111111111111111100000000000000000000000000000)) #b00000000000000000000000000001110 (fp #b0 #b01010101110 #b1111111111111111111111100000000000000000000000000000)) #b00000000000000000000000000001111 (fp #b0 #b01010010110 #b1111111111111111111111100000000000000000000000000000)) #b00000000000000000000000000010000 (fp #b0 #b01001111110 #b1111111111111111111111100000000000000000000000000000)) #b00000000000000000000000000010001 (fp #b0 #b01001100110 #b1111111111111111111111100000000000000000000000000000)) #b00000000000000000000000000010010 (fp #b0 #b01001001110 #b1111111111111111111111100000000000000000000000000000)) #b00000000000000000000000000010011 (fp #b0 #b01000110110 #b1111111111111111111111100000000000000000000000000000)) #b00000000000000000000000000000010 (fp #b0 #b01111001110 #b1111111111111111111111100000000000000000000000000000)) #b00000000000000000000000000000011 (fp #b0 #b01110110110 #b1111111111111111111111100000000000000000000000000000)) #b00000000000000000000000000000100 (fp #b0 #b01110011110 #b1111111111111111111111100000000000000000000000000000)) #b00000000000000000000000000000101 (fp #b0 #b01110000110 #b1111111111111111111111100000000000000000000000000000)) #b00000000000000000000000000000110 (fp #b0 #b01101101110 #b1111111111111111111111100000000000000000000000000000)) #b00000000000000000000000000000111 (fp #b0 #b01101010110 #b1111111111111111111111100000000000000000000000000000)) #b00000000000000000000000000001000 (fp #b0 #b01100111110 #b1111111111111111111111100000000000000000000000000000)) #b00000000000000000000000000001001 (fp #b0 #b01100100110 #b1111111111111111111111100000000000000000000000000000)) i!327))) (or (not (fp.leq (fp #b0 #b00000000000 #b0000000000000000000000000000000000000000000000000000) fw1!4)) (not (fp.leq fw1!4 (fp.mul roundNearestTiesToEven (fp #b0 #b01111100111 #b0100010001000010110100000000000000000000000000000000) (select (store (store (store (store (store (store (store (store (store (store (store (store (store (store (store (store (store (store (store (store ((as const (Array (_ BitVec 32) (_ FloatingPoint 11 53))) (fp #b0 #b00000000000 #b0000000000000000000000000000000000000000000000000000)) #b00000000000000000000000000000000 (fp #b0 #b01111111101 #b1111111111111111111111000000000000000000000000000000)) #b00000000000000000000000000000001 (fp #b0 #b01111100110 #b1111111111111111111111100000000000000000000000000000)) #b00000000000000000000000000001010 (fp #b0 #b01100001110 #b1111111111111111111111100000000000000000000000000000)) #b00000000000000000000000000001011 (fp #b0 #b01011110110 #b1111111111111111111111100000000000000000000000000000)) #b00000000000000000000000000001100 (fp #b0 #b01011011110 #b1111111111111111111111100000000000000000000000000000)) #b00000000000000000000000000001101 (fp #b0 #b01011000110 #b1111111111111111111111100000000000000000000000000000)) #b00000000000000000000000000001110 (fp #b0 #b01010101110 #b1111111111111111111111100000000000000000000000000000)) #b00000000000000000000000000001111 (fp #b0 #b01010010110 #b1111111111111111111111100000000000000000000000000000)) #b00000000000000000000000000010000 (fp #b0 #b01001111110 #b1111111111111111111111100000000000000000000000000000)) #b00000000000000000000000000010001 (fp #b0 #b01001100110 #b1111111111111111111111100000000000000000000000000000)) #b00000000000000000000000000010010 (fp #b0 #b01001001110 #b1111111111111111111111100000000000000000000000000000)) #b00000000000000000000000000010011 (fp #b0 #b01000110110 #b1111111111111111111111100000000000000000000000000000)) #b00000000000000000000000000000010 (fp #b0 #b01111001110 #b1111111111111111111111100000000000000000000000000000)) #b00000000000000000000000000000011 (fp #b0 #b01110110110 #b1111111111111111111111100000000000000000000000000000)) #b00000000000000000000000000000100 (fp #b0 #b01110011110 #b1111111111111111111111100000000000000000000000000000)) #b00000000000000000000000000000101 (fp #b0 #b01110000110 #b1111111111111111111111100000000000000000000000000000)) #b00000000000000000000000000000110 (fp #b0 #b01101101110 #b1111111111111111111111100000000000000000000000000000)) #b00000000000000000000000000000111 (fp #b0 #b01101010110 #b1111111111111111111111100000000000000000000000000000)) #b00000000000000000000000000001000 (fp #b0 #b01100111110 #b1111111111111111111111100000000000000000000000000000)) #b00000000000000000000000000001001 (fp #b0 #b01100100110 #b1111111111111111111111100000000000000000000000000000)) (bvsub i!327 #b00000000000000000000000000000001)))))))))))))

(assert (= (and start!1155 res!3958) b!5060))

(assert (= (and b!5060 res!3957) b!5061))

(assert (= (and b!5061 res!3959) b!5062))

(assert (= (and b!5062 res!3960) b!5063))

(declare-fun m!6975 () Bool)

(assert (=> b!5062 m!6975))

(declare-fun m!6977 () Bool)

(assert (=> b!5061 m!6977))

(declare-fun m!6979 () Bool)

(assert (=> b!5061 m!6979))

(declare-fun m!6981 () Bool)

(assert (=> b!5061 m!6981))

(declare-fun m!6983 () Bool)

(assert (=> b!5061 m!6983))

(declare-fun m!6985 () Bool)

(assert (=> b!5061 m!6985))

(declare-fun m!6987 () Bool)

(assert (=> b!5061 m!6987))

(declare-fun m!6989 () Bool)

(assert (=> b!5061 m!6989))

(declare-fun m!6991 () Bool)

(assert (=> b!5061 m!6991))

(declare-fun m!6993 () Bool)

(assert (=> b!5061 m!6993))

(declare-fun m!6995 () Bool)

(assert (=> b!5061 m!6995))

(declare-fun m!6997 () Bool)

(assert (=> b!5061 m!6997))

(declare-fun m!6999 () Bool)

(assert (=> b!5061 m!6999))

(declare-fun m!7001 () Bool)

(assert (=> b!5060 m!7001))

(declare-fun m!7003 () Bool)

(assert (=> start!1155 m!7003))

(declare-fun m!7005 () Bool)

(assert (=> start!1155 m!7005))

(declare-fun m!7007 () Bool)

(assert (=> b!5063 m!7007))

(declare-fun m!7009 () Bool)

(assert (=> b!5063 m!7009))

(declare-fun m!7011 () Bool)

(assert (=> b!5063 m!7011))

(declare-fun m!7013 () Bool)

(assert (=> b!5063 m!7013))

(check-sat (not b!5060) (not start!1155) (not b!5062))
(check-sat)
(get-model)

(declare-fun d!2195 () Bool)

(assert (=> d!2195 (= (qqInv!0 qq!74) (and (= (size!194 qq!74) #b00000000000000000000000000010100) (fp.leq (fp #b0 #b00000000000 #b0000000000000000000000000000000000000000000000000000) (select (arr!194 qq!74) #b00000000000000000000000000000000)) (fp.leq (select (arr!194 qq!74) #b00000000000000000000000000000000) (fp #b0 #b01111111101 #b1111111111111111111111000000000000000000000000000000)) (fp.leq (fp #b0 #b00000000000 #b0000000000000000000000000000000000000000000000000000) (select (arr!194 qq!74) #b00000000000000000000000000000001)) (fp.leq (select (arr!194 qq!74) #b00000000000000000000000000000001) (fp #b0 #b01111100110 #b1111111111111111111111100000000000000000000000000000)) (fp.leq (fp #b0 #b00000000000 #b0000000000000000000000000000000000000000000000000000) (select (arr!194 qq!74) #b00000000000000000000000000000010)) (fp.leq (select (arr!194 qq!74) #b00000000000000000000000000000010) (fp #b0 #b01111001110 #b1111111111111111111111100000000000000000000000000000)) (fp.leq (fp #b0 #b00000000000 #b0000000000000000000000000000000000000000000000000000) (select (arr!194 qq!74) #b00000000000000000000000000000011)) (fp.leq (select (arr!194 qq!74) #b00000000000000000000000000000011) (fp #b0 #b01110110110 #b1111111111111111111111100000000000000000000000000000)) (fp.leq (fp #b0 #b00000000000 #b0000000000000000000000000000000000000000000000000000) (select (arr!194 qq!74) #b00000000000000000000000000000100)) (fp.leq (select (arr!194 qq!74) #b00000000000000000000000000000100) (fp #b0 #b01110011110 #b1111111111111111111111100000000000000000000000000000)) (fp.leq (fp #b0 #b00000000000 #b0000000000000000000000000000000000000000000000000000) (select (arr!194 qq!74) #b00000000000000000000000000000101)) (fp.leq (select (arr!194 qq!74) #b00000000000000000000000000000101) (fp #b0 #b01110000110 #b1111111111111111111111100000000000000000000000000000)) (fp.leq (fp #b0 #b00000000000 #b0000000000000000000000000000000000000000000000000000) (select (arr!194 qq!74) #b00000000000000000000000000000110)) (fp.leq (select (arr!194 qq!74) #b00000000000000000000000000000110) (fp #b0 #b01101101110 #b1111111111111111111111100000000000000000000000000000)) (fp.leq (fp #b0 #b00000000000 #b0000000000000000000000000000000000000000000000000000) (select (arr!194 qq!74) #b00000000000000000000000000000111)) (fp.leq (select (arr!194 qq!74) #b00000000000000000000000000000111) (fp #b0 #b01101010110 #b1111111111111111111111100000000000000000000000000000)) (fp.leq (fp #b0 #b00000000000 #b0000000000000000000000000000000000000000000000000000) (select (arr!194 qq!74) #b00000000000000000000000000001000)) (fp.leq (select (arr!194 qq!74) #b00000000000000000000000000001000) (fp #b0 #b01100111110 #b1111111111111111111111100000000000000000000000000000)) (fp.leq (fp #b0 #b00000000000 #b0000000000000000000000000000000000000000000000000000) (select (arr!194 qq!74) #b00000000000000000000000000001001)) (fp.leq (select (arr!194 qq!74) #b00000000000000000000000000001001) (fp #b0 #b01100100110 #b1111111111111111111111100000000000000000000000000000)) (fp.leq (fp #b0 #b00000000000 #b0000000000000000000000000000000000000000000000000000) (select (arr!194 qq!74) #b00000000000000000000000000001010)) (fp.leq (select (arr!194 qq!74) #b00000000000000000000000000001010) (fp #b0 #b01100001110 #b1111111111111111111111100000000000000000000000000000)) (fp.leq (fp #b0 #b00000000000 #b0000000000000000000000000000000000000000000000000000) (select (arr!194 qq!74) #b00000000000000000000000000001011)) (fp.leq (select (arr!194 qq!74) #b00000000000000000000000000001011) (fp #b0 #b01011110110 #b1111111111111111111111100000000000000000000000000000)) (fp.leq (fp #b0 #b00000000000 #b0000000000000000000000000000000000000000000000000000) (select (arr!194 qq!74) #b00000000000000000000000000001100)) (fp.leq (select (arr!194 qq!74) #b00000000000000000000000000001100) (fp #b0 #b01011011110 #b1111111111111111111111100000000000000000000000000000)) (fp.leq (fp #b0 #b00000000000 #b0000000000000000000000000000000000000000000000000000) (select (arr!194 qq!74) #b00000000000000000000000000001101)) (fp.leq (select (arr!194 qq!74) #b00000000000000000000000000001101) (fp #b0 #b01011000110 #b1111111111111111111111100000000000000000000000000000)) (fp.leq (fp #b0 #b00000000000 #b0000000000000000000000000000000000000000000000000000) (select (arr!194 qq!74) #b00000000000000000000000000001110)) (fp.leq (select (arr!194 qq!74) #b00000000000000000000000000001110) (fp #b0 #b01010101110 #b1111111111111111111111100000000000000000000000000000)) (fp.leq (fp #b0 #b00000000000 #b0000000000000000000000000000000000000000000000000000) (select (arr!194 qq!74) #b00000000000000000000000000001111)) (fp.leq (select (arr!194 qq!74) #b00000000000000000000000000001111) (fp #b0 #b01010010110 #b1111111111111111111111100000000000000000000000000000)) (fp.leq (fp #b0 #b00000000000 #b0000000000000000000000000000000000000000000000000000) (select (arr!194 qq!74) #b00000000000000000000000000010000)) (fp.leq (select (arr!194 qq!74) #b00000000000000000000000000010000) (fp #b0 #b01001111110 #b1111111111111111111111100000000000000000000000000000)) (fp.leq (fp #b0 #b00000000000 #b0000000000000000000000000000000000000000000000000000) (select (arr!194 qq!74) #b00000000000000000000000000010001)) (fp.leq (select (arr!194 qq!74) #b00000000000000000000000000010001) (fp #b0 #b01001100110 #b1111111111111111111111100000000000000000000000000000)) (fp.leq (fp #b0 #b00000000000 #b0000000000000000000000000000000000000000000000000000) (select (arr!194 qq!74) #b00000000000000000000000000010010)) (fp.leq (select (arr!194 qq!74) #b00000000000000000000000000010010) (fp #b0 #b01001001110 #b1111111111111111111111100000000000000000000000000000)) (fp.leq (fp #b0 #b00000000000 #b0000000000000000000000000000000000000000000000000000) (select (arr!194 qq!74) #b00000000000000000000000000010011)) (fp.leq (select (arr!194 qq!74) #b00000000000000000000000000010011) (fp #b0 #b01000110110 #b1111111111111111111111100000000000000000000000000000))))))

(declare-fun bs!870 () Bool)

(assert (= bs!870 d!2195))

(declare-fun m!7015 () Bool)

(assert (=> bs!870 m!7015))

(declare-fun m!7017 () Bool)

(assert (=> bs!870 m!7017))

(declare-fun m!7019 () Bool)

(assert (=> bs!870 m!7019))

(declare-fun m!7021 () Bool)

(assert (=> bs!870 m!7021))

(assert (=> bs!870 m!6999))

(declare-fun m!7023 () Bool)

(assert (=> bs!870 m!7023))

(assert (=> bs!870 m!6983))

(declare-fun m!7025 () Bool)

(assert (=> bs!870 m!7025))

(assert (=> bs!870 m!6997))

(declare-fun m!7027 () Bool)

(assert (=> bs!870 m!7027))

(declare-fun m!7029 () Bool)

(assert (=> bs!870 m!7029))

(declare-fun m!7031 () Bool)

(assert (=> bs!870 m!7031))

(declare-fun m!7033 () Bool)

(assert (=> bs!870 m!7033))

(declare-fun m!7035 () Bool)

(assert (=> bs!870 m!7035))

(declare-fun m!7037 () Bool)

(assert (=> bs!870 m!7037))

(declare-fun m!7039 () Bool)

(assert (=> bs!870 m!7039))

(declare-fun m!7041 () Bool)

(assert (=> bs!870 m!7041))

(declare-fun m!7043 () Bool)

(assert (=> bs!870 m!7043))

(declare-fun m!7045 () Bool)

(assert (=> bs!870 m!7045))

(assert (=> bs!870 m!6987))

(assert (=> b!5060 d!2195))

(declare-fun d!2197 () Bool)

(assert (=> d!2197 (= (array_inv!144 qq!74) (bvsge (size!194 qq!74) #b00000000000000000000000000000000))))

(assert (=> start!1155 d!2197))

(declare-fun d!2199 () Bool)

(assert (=> d!2199 (= (array_inv!144 fq!78) (bvsge (size!194 fq!78) #b00000000000000000000000000000000))))

(assert (=> start!1155 d!2199))

(declare-fun d!2201 () Bool)

(assert (=> d!2201 (= (fqInv!0 fq!78) (and (= (size!194 fq!78) #b00000000000000000000000000010100) (fp.leq (fp #b0 #b00000000000 #b0000000000000000000000000000000000000000000000000000) (select (arr!194 fq!78) #b00000000000000000000000000000000)) (fp.leq (select (arr!194 fq!78) #b00000000000000000000000000000000) (fp #b0 #b01111111110 #b1001001000011111101100001101101111000000100110000000)) (fp.leq (fp #b0 #b00000000000 #b0000000000000000000000000000000000000000000000000000) (select (arr!194 fq!78) #b00000000000000000000000000000001)) (fp.leq (select (arr!194 fq!78) #b00000000000000000000000000000001) (fp #b0 #b01111101000 #b0001101000100000100011001001010011001110101111100000)) (fp.leq (fp #b0 #b00000000000 #b0000000000000000000000000000000000000000000000000000) (select (arr!194 fq!78) #b00000000000000000000000000000010)) (fp.leq (select (arr!194 fq!78) #b00000000000000000000000000000010) (fp #b0 #b01111010000 #b1100110001001011101000011101001010011001111110100000)) (fp.leq (fp #b0 #b00000000000 #b0000000000000000000000000000000000000000000000000000) (select (arr!194 fq!78) #b00000000000000000000000000000011)) (fp.leq (select (arr!194 fq!78) #b00000000000000000000000000000011) (fp #b0 #b01110111001 #b0100100001001011101001000100011000011011101101111000)) (fp.leq (fp #b0 #b00000000000 #b0000000000000000000000000000000000000000000000000000) (select (arr!194 fq!78) #b00000000000000000000000000000100)) (fp.leq (select (arr!194 fq!78) #b00000000000000000000000000000100) (fp #b0 #b01110100001 #b1001101000011011010011011100010110101101101010011000)) (fp.leq (fp #b0 #b00000000000 #b0000000000000000000000000000000000000000000000000000) (select (arr!194 fq!78) #b00000000000000000000000000000101)) (fp.leq (select (arr!194 fq!78) #b00000000000000000000000000000101) (fp #b0 #b01110001001 #b1011101001010010010101001100010110101101101010011000)) (fp.leq (fp #b0 #b00000000000 #b0000000000000000000000000000000000000000000000000000) (select (arr!194 fq!78) #b00000000000000000000000000000110)) (fp.leq (select (arr!194 fq!78) #b00000000000000000000000000000110) (fp #b0 #b01101110001 #b1011101001010010010101001100010110101101101010011000)) (fp.leq (fp #b0 #b00000000000 #b0000000000000000000000000000000000000000000000000000) (select (arr!194 fq!78) #b00000000000000000000000000000111)) (fp.leq (select (arr!194 fq!78) #b00000000000000000000000000000111) (fp #b0 #b01101011001 #b1011101001010010010101001100010110101101101010011000)) (fp.leq (fp #b0 #b00000000000 #b0000000000000000000000000000000000000000000000000000) (select (arr!194 fq!78) #b00000000000000000000000000001000)) (fp.leq (select (arr!194 fq!78) #b00000000000000000000000000001000) (fp #b0 #b01101000001 #b1011101001010010010101001100010110101101101010011000)) (fp.leq (fp #b0 #b00000000000 #b0000000000000000000000000000000000000000000000000000) (select (arr!194 fq!78) #b00000000000000000000000000001001)) (fp.leq (select (arr!194 fq!78) #b00000000000000000000000000001001) (fp #b0 #b01100101001 #b1011101001010010010101001100010110101101101010011000)) (fp.leq (fp #b0 #b00000000000 #b0000000000000000000000000000000000000000000000000000) (select (arr!194 fq!78) #b00000000000000000000000000001010)) (fp.leq (select (arr!194 fq!78) #b00000000000000000000000000001010) (fp #b0 #b01100010001 #b1011101001010010010101001100010110101101101010011000)) (fp.leq (fp #b0 #b00000000000 #b0000000000000000000000000000000000000000000000000000) (select (arr!194 fq!78) #b00000000000000000000000000001011)) (fp.leq (select (arr!194 fq!78) #b00000000000000000000000000001011) (fp #b0 #b01011111001 #b1011101001010010010101001100010110101101101010011000)) (fp.leq (fp #b0 #b00000000000 #b0000000000000000000000000000000000000000000000000000) (select (arr!194 fq!78) #b00000000000000000000000000001100)) (fp.leq (select (arr!194 fq!78) #b00000000000000000000000000001100) (fp #b0 #b01011100001 #b1011101001010010010101001100010110101101101010011000)) (fp.leq (fp #b0 #b00000000000 #b0000000000000000000000000000000000000000000000000000) (select (arr!194 fq!78) #b00000000000000000000000000001101)) (fp.leq (select (arr!194 fq!78) #b00000000000000000000000000001101) (fp #b0 #b01011001001 #b1011101001010010010101001100010110101101101010011000)) (fp.leq (fp #b0 #b00000000000 #b0000000000000000000000000000000000000000000000000000) (select (arr!194 fq!78) #b00000000000000000000000000001110)) (fp.leq (select (arr!194 fq!78) #b00000000000000000000000000001110) (fp #b0 #b01010110001 #b1011101001010010010101001100010110101101101010011000)) (fp.leq (fp #b0 #b00000000000 #b0000000000000000000000000000000000000000000000000000) (select (arr!194 fq!78) #b00000000000000000000000000001111)) (fp.leq (select (arr!194 fq!78) #b00000000000000000000000000001111) (fp #b0 #b01010011001 #b1011101001010010010101001100010110101101101010011000)) (fp.leq (fp #b0 #b00000000000 #b0000000000000000000000000000000000000000000000000000) (select (arr!194 fq!78) #b00000000000000000000000000010000)) (fp.leq (select (arr!194 fq!78) #b00000000000000000000000000010000) (fp #b0 #b01010000001 #b1011101001010010010101001100010110101101101010011000)) (fp.leq (fp #b0 #b00000000000 #b0000000000000000000000000000000000000000000000000000) (select (arr!194 fq!78) #b00000000000000000000000000010001)) (fp.leq (select (arr!194 fq!78) #b00000000000000000000000000010001) (fp #b0 #b01001101001 #b1011101001010010010101001100010110101101101010011000)) (fp.leq (fp #b0 #b00000000000 #b0000000000000000000000000000000000000000000000000000) (select (arr!194 fq!78) #b00000000000000000000000000010010)) (fp.leq (select (arr!194 fq!78) #b00000000000000000000000000010010) (fp #b0 #b01001010001 #b1011101001010010010101001100010110101101101010011000)) (fp.leq (fp #b0 #b00000000000 #b0000000000000000000000000000000000000000000000000000) (select (arr!194 fq!78) #b00000000000000000000000000010011)) (fp.leq (select (arr!194 fq!78) #b00000000000000000000000000010011) (fp #b0 #b01000111001 #b1011101001010010010101001100010110101101101010011000))))))

(declare-fun bs!871 () Bool)

(assert (= bs!871 d!2201))

(declare-fun m!7047 () Bool)

(assert (=> bs!871 m!7047))

(declare-fun m!7049 () Bool)

(assert (=> bs!871 m!7049))

(declare-fun m!7051 () Bool)

(assert (=> bs!871 m!7051))

(declare-fun m!7053 () Bool)

(assert (=> bs!871 m!7053))

(declare-fun m!7055 () Bool)

(assert (=> bs!871 m!7055))

(declare-fun m!7057 () Bool)

(assert (=> bs!871 m!7057))

(declare-fun m!7059 () Bool)

(assert (=> bs!871 m!7059))

(declare-fun m!7061 () Bool)

(assert (=> bs!871 m!7061))

(declare-fun m!7063 () Bool)

(assert (=> bs!871 m!7063))

(declare-fun m!7065 () Bool)

(assert (=> bs!871 m!7065))

(declare-fun m!7067 () Bool)

(assert (=> bs!871 m!7067))

(declare-fun m!7069 () Bool)

(assert (=> bs!871 m!7069))

(declare-fun m!7071 () Bool)

(assert (=> bs!871 m!7071))

(declare-fun m!7073 () Bool)

(assert (=> bs!871 m!7073))

(declare-fun m!7075 () Bool)

(assert (=> bs!871 m!7075))

(declare-fun m!7077 () Bool)

(assert (=> bs!871 m!7077))

(declare-fun m!7079 () Bool)

(assert (=> bs!871 m!7079))

(declare-fun m!7081 () Bool)

(assert (=> bs!871 m!7081))

(declare-fun m!7083 () Bool)

(assert (=> bs!871 m!7083))

(declare-fun m!7085 () Bool)

(assert (=> bs!871 m!7085))

(assert (=> b!5062 d!2201))

(check-sat)
